
50
132890

4148 2378
2878 5553
8448 1947
4438 5771
5288 7072
5513 6412
3390 59
6395 6680
9001 2681
720 4534
5610 8581
2641 8668
6557 1320
6234 916
458 7535
1130 4315
5284 7076
8587 6468
7977 9897
8239 8602
1371 9950
3506 9027
5770 5690
3665 4072
2307 1627
9221 8399
6353 4920
3981 4857
4761 2932
6996 3305
7593 5047
7796 6430
3345 3099
9677 1495
7631 5952
2706 9442
1720 5611
4302 9787
2606 1807
8776 7966
94 5379
8180 317
1619 1748
8119 7208
4328 8185
1318 1319
9854 6833
4190 8875
9784 2404
3225 8290
